p cnf 21 7
a 1 0
e 2 3 0
a 4 0
e 5 0
a 6 0
e 7 8 0
a 9 10 11 0
e 12 13 0
a 14 0
e 15 16 0
a 17 0
e 18 19 0
a 20 21 0
-5 7 -11 15 0
5 10 -3 13 8 0
-2 -21 4 0
-8 6 12 0
-17 13 0
-16 -19 20 -4 12 0
14 2 15 3 0
